objective value:                                 8112
t_x#AsdLw;;U36                                      1 	(obj:144)
t_x#AsdRsdg;;U36                                    1 	(obj:144)
t_x#AsdzMt;;U36                                     1 	(obj:144)
t_x#BdGvc;;U36                                      1 	(obj:108)
t_x#BdLls;;U3                                       1 	(obj:15)
t_x#GnRtd;;U36                                      1 	(obj:144)
t_x#GvOdzg;;U1                                      1 	(obj:5)
t_x#new0_7_I6;;U36                                  1 	(obj:144)
t_x#new0_8_I8;;U1                                   1 	(obj:3)
t_x#new0_13_I13;;U36                                1 	(obj:144)
t_x#new0_14_I14;;U36                                1 	(obj:144)
t_x#new0_15_I15;;U36                                1 	(obj:144)
t_x#new1_7_I27;;U36                                 1 	(obj:144)
t_x#new1_13_I33;;U1                                 1 	(obj:4)
t_x#new1_14_I34;;U1                                 1 	(obj:4)
t_x#new2_7_I46;;U1                                  1 	(obj:4)
t_x#new2_7_I47;;U1                                  1 	(obj:4)
t_x#new2_13_I53;;U1                                 1 	(obj:4)
t_x#new2_14_I54;;U1                                 1 	(obj:4)
t_x#new3_7_I63;;U1                                  1 	(obj:4)
t_x#new3_7_I64;;U1                                  1 	(obj:4)
t_x#new3_13_I69;;U1                                 1 	(obj:4)
t_x#new3_13_I70;;U1                                 1 	(obj:4)
t_x#new3_15_I72;;U1                                 1 	(obj:4)
t_x#new5_7_I79;;U1                                  1 	(obj:4)
t_x#new5_13_I85;;U1                                 1 	(obj:4)
t_x#new5_14_I86;;U1                                 1 	(obj:4)
t_x#new5_15_I87;;U1                                 1 	(obj:4)
t_x#new5_18_I90;;U1                                 1 	(obj:3)
t_x#new5_18_I91;;U1                                 1 	(obj:3)
t_x#new6_7_I96;;U36                                 1 	(obj:144)
t_x#new6_13_I103;;U36                               1 	(obj:144)
t_x#new6_15_I105;;U36                               1 	(obj:144)
t_x#new7_8_I113;;U36                                1 	(obj:180)
t_x#new7_8_I114;;U36                                1 	(obj:180)
t_x#new7_9_I115;;U36                                1 	(obj:144)
t_x#new7_13_I117;;U36                               1 	(obj:144)
t_x#new7_14_I118;;U36                               1 	(obj:216)
t_x#new7_15_I119;;U1                                1 	(obj:7)
t_x#new7_15_I120;;U35                               1 	(obj:210)
t_x#new7_15_I121;;U36                               1 	(obj:252)
t_x#new7_16_I122;;U36                               1 	(obj:180)
t_x#new7_18_I124;;U36                               1 	(obj:180)
t_x#new7_18_I125;;U36                               1 	(obj:180)
t_x#new7_18_I126;;U1                                1 	(obj:5)
t_x#new7_18_I127;;U1                                1 	(obj:5)
t_x#new7_18_I128;;U1                                1 	(obj:5)
t_x#new7_22_I130;;U1                                1 	(obj:5)
t_x#new8_13_I134;;U1                                1 	(obj:5)
t_x#new8_13_I135;;U1                                1 	(obj:5)
t_x#new8_14_I136;;U1                                1 	(obj:5)
t_x#new8_14_I137;;U1                                1 	(obj:5)
t_x#new8_15_I139;;U1                                1 	(obj:5)
t_x#new8_15_I140;;U1                                1 	(obj:5)
t_x#new8_22_I146;;U36                               1 	(obj:144)
t_x#new8_22_I147;;U36                               1 	(obj:144)
t_x#new9_13_I153;;U36                               1 	(obj:144)
t_x#new9_14_I154;;U36                               1 	(obj:144)
t_x#new9_15_I155;;U36                               1 	(obj:144)
t_x#new12_14_I164;;U1                               1 	(obj:5)
t_x#new12_14_I165;;U1                               1 	(obj:5)
t_x#new12_14_I166;;U1                               1 	(obj:5)
t_x#new12_15_I167;;U36                              1 	(obj:144)
t_x#new12_16_I168;;U36                              1 	(obj:144)
t_x#new12_16_I169;;U1                               1 	(obj:4)
t_x#new12_16_I170;;U1                               1 	(obj:4)
t_x#new12_22_I179;;U1                               1 	(obj:4)
t_x#new12_22_I180;;U1                               1 	(obj:4)
t_x#new12_22_I181;;U1                               1 	(obj:4)
t_x#new13_14_I182;;U36                              1 	(obj:216)
t_x#new13_15_I183;;U1                               1 	(obj:7)
t_x#new13_15_I184;;U1                               1 	(obj:6)
t_x#new13_15_I185;;U36                              1 	(obj:252)
t_x#new13_16_I186;;U36                              1 	(obj:180)
t_x#new13_17_I187;;U1                               1 	(obj:4)
t_x#new13_18_I188;;U36                              1 	(obj:180)
t_x#new13_18_I189;;U36                              1 	(obj:180)
t_x#new13_18_I190;;U36                              1 	(obj:180)
t_x#new13_18_I191;;U36                              1 	(obj:180)
t_x#new13_18_I192;;U36                              1 	(obj:180)
t_x#new13_22_I194;;U36                              1 	(obj:180)
t_x#new14_15_I195;;U1                               1 	(obj:6)
t_x#new14_15_I196;;U36                              1 	(obj:252)
t_x#new14_16_I197;;U36                              1 	(obj:180)
t_x#new14_17_I198;;U1                               1 	(obj:4)
t_x#new14_18_I199;;U36                              1 	(obj:180)
t_x#new14_18_I200;;U36                              1 	(obj:180)
t_x#new14_18_I201;;U36                              1 	(obj:180)
t_x#new14_20_I202;;U35                              1 	(obj:105)
t_x#new14_22_I203;;U36                              1 	(obj:180)
t_x#new15_16_I204;;U36                              1 	(obj:180)
t_x#new15_17_I205;;U1                               1 	(obj:4)
t_x#new15_18_I206;;U1                               1 	(obj:4)
t_x#new15_22_I208;;U1                               1 	(obj:5)
t_x#new16_22_I212;;U1                               1 	(obj:4)
t_x#new18_22_I219;;U1                               1 	(obj:4)
t_x#new18_22_I220;;U1                               1 	(obj:4)
t_x#new18_22_I221;;U1                               1 	(obj:4)
